COLUMNS

passenger_count
pickup_ID
dropoff_ID
request_time_sec
pickup_district
dropoff_district
LDuals
IDuals
vehicle_ID
pick_position
drop_position

REQUESTS_INFO
1      345       629       28819     299       189       281       281       8         1         3         
1      837       604       28865     290       189       143.25    143.25    31        1         2         
1      950       1218      28881     290       84        106       106       47        1         3         
1      1069      972       28872     291       290       170.5     170.5     71        1         2         
2      253       439       28885     206       189       193       193       174       1         2         
1      498       719       28887     52        189       154       154       202       1         3         
3      812       601       28859     290       189       167.5     167.5     225       1         3         
2      1088      1265      28849     291       192       168.5     168.5     268       1         3         
2      366       577       28821     299       189       268.5     268.5     271       1         2         
1      876       767       28889     50        290       119       119       366       1         3         
2      351       719       28844     52        189       288.5     288.5     408       1         2         
1      311       674       28858     87        189       136       136       455       1         3         
2      816       842       28864     290       290       115       115       464       1         2         
4      458       648       28873     52        189       157       157       514       1         2         
1      641       232       28887     131       266       98        98        522       1         3         
1      983       759       28867     291       131       152       152       542       1         2         
3      410       456       28878     52        52        203.5     203.5     553       1         2         
3      805       918       28840     291       50        162       162       598       1         2         
1      247       289       28835     266       127       193       193       611       1         2         
3      366       439       28863     299       189       226.5     226.5     618       1         2         
1      778       602       28869     131       189       98        98        643       1         3         
3      834       1032      28835     290       84        222       222       652       1         2         
3      485       576       28883     189       189       128       128       662       1         3         
1      662       738       28886     131       189       146       146       664       1         2         
1      834       1011      28866     290       84        191       191       688       1         3         
1      862       670       28880     290       280       146       146       704       1         3         
2      1043      1227      28801     291       192       249       249       767       1         2         
3      947       946       28836     290       290       141.5     141.5     770       1         2         
4      1169      1025      28803     291       291       200       200       779       1         2         
1      841       604       28849     290       189       189       189       795       1         2         
1      663       731       28878     131       131       144       144       806       1         2         
1      860       834       28843     290       290       138       138       856       1         3         
2      839       627       28872     290       189       137.25    137.25    893       1         2         
1      790       739       28838     290       189       187       187       900       1         2         
1      887       964       28789     290       50        237.5     237.5     916       1         2         
1      662       672       28888     131       189       144       144       998       1         3         
3      345       600       28866     299       280       234       234       1001      1         3         
4      414       333       28863     100       119       173       173       1026      1         2         
3      369       673       28814     52        189       261.5     261.5     1030      1         3         
3      410       456       28878     52        52        203.5     203.5     1061      1         2         
1      916       1045      28875     291       291       118       118       1067      1         2         
1      883       621       28888     290       280       123       123       1137      1         3         
1      1175      1057      28880     129       84        159       159       1165      1         3         
1      1218      839       28876     84        290       117       117       1206      1         3         
1      768       411       28837     290       52        176.5     176.5     1260      1         2         
2      333       580       28856     119       189       159       159       1261      1         3         
2      368       416       28888     299       100       228.5     228.5     1275      1         2         
1      887       332       28801     290       87        225.5     225.5     1277      1         4         
3      1043      1227      28801     291       192       239.5     239.5     1377      1         2         
1      1043      871       28837     291       291       199       199       1390      1         3         
1      909       906       28873     290       290       137       137       1402      1         2         
3      1089      749       28863     291       290       167       167       1419      1         3         
4      858       860       28749     290       290       280.5     280.5     1433      1         2         
3      863       904       28755     290       290       283.5     283.5     1461      1         2         
1      769       602       28871     290       189       97        97        1530      1         3         
1      325       601       28865     299       189       184       184       1726      1         3         
3      345       600       28866     299       280       234       234       1726      2         4         
3      815       743       28818     290       290       192.5     192.5     1801      1         2         
1      333       554       28838     119       189       212       212       1831      1         2         
3      847       892       28867     291       291       166       166       1855      1         2         
3      881       604       28833     290       189       193       193       1893      1         3         
1      347       210       28879     299       266       189       189       1897      1         3         
1      663       439       28832     131       189       190       190       1923      1         2         
1      356       484       28888     119       189       186       186       1925      1         2         
3      502       664       28866     52        131       127.5     127.5     1928      1         3         
4      161       389       28876     178       299       123       123       1936      1         2         
2      922       959       28885     50        291       146       146       1989      1         3         
1      194       375       28890     207       119       0         0         0         0         0         
1      1023      914       28890     291       291       0         0         0         0         0         
1      767       603       28890     290       189       0         0         0         0         0         
1      356       720       28890     119       290       0         0         0         0         0         
1      310       230       28891     127       266       0         0         0         0         0         
1      458       668       28891     52        280       0         0         0         0         0         
3      485       307       28891     189       127       0         0         0         0         0         
2      485       307       28891     189       127       0         0         0         0         0         
1      712       670       28892     131       280       0         0         0         0         0         
1      337       603       28892     277       189       0         0         0         0         0         
2      791       700       28892     290       290       0         0         0         0         0         
1      767       698       28892     290       189       0         0         0         0         0         
1      597       436       28892     131       100       0         0         0         0         0         
1      947       1025      28893     290       291       0         0         0         0         0         
1      925       818       28893     290       290       0         0         0         0         0         
2      373       325       28893     119       299       0         0         0         0         0         
2      510       604       28894     199       189       0         0         0         0         0         
1      484       533       28894     189       199       0         0         0         0         0         
1      1022      758       28894     291       131       0         0         0         0         0         
1      835       651       28894     290       189       0         0         0         0         0         
1      649       601       28894     189       189       0         0         0         0         0         
1      967       601       28894     50        189       0         0         0         0         0         
1      768       417       28895     290       100       0         0         0         0         0         
1      631       532       28895     189       199       0         0         0         0         0         
1      981       1088      28895     291       291       0         0         0         0         0         
1      189       720       28896     286       290       0         0         0         0         0         
1      717       64        28896     189       98        0         0         0         0         0         
1      434       208       28896     52        286       0         0         0         0         0         
1      620       603       28896     131       189       0         0         0         0         0         
1      309       325       28897     127       299       0         0         0         0         0         
1      654       558       28897     189       189       0         0         0         0         0         
1      873       116       28897     291       9         0         0         0         0         0         
1      655       794       28897     189       290       0         0         0         0         0         
1      333       580       28897     119       189       0         0         0         0         0         
1      970       693       28897     290       280       0         0         0         0         0         
2      295       298       28897     87        277       0         0         0         0         0         
1      510       629       28897     199       189       0         0         0         0         0         
3      579       395       28897     189       100       0         0         0         0         0         
1      527       694       28897     52        189       0         0         0         0         0         
1      411       209       28898     52        266       0         0         0         0         0         
1      392       500       28898     52        52        0         0         0         0         0         
1      106       504       28898     178       52        0         0         0         0         0         
1      1003      1086      28898     291       291       0         0         0         0         0         
1      923       533       28898     290       199       0         0         0         0         0         
1      375       624       28898     119       189       0         0         0         0         0         
1      577       484       28899     189       189       0         0         0         0         0         
1      417       356       28899     100       119       0         0         0         0         0         
1      749       698       28899     290       189       0         0         0         0         0         
1      819       609       28899     999       189       0         0         0         0         0         
3      391       304       28899     52        299       0         0         0         0         0         
2      391       304       28899     52        299       0         0         0         0         0         
3      118       522       28899     286       52        0         0         0         0         0         
2      789       772       28900     290       290       0         0         0         0         0         
1      345       414       28900     299       100       0         0         0         0         0         
1      1066      604       28900     291       189       0         0         0         0         0         
2      502       78        28900     52        9         0         0         0         0         0         
1      621       530       28901     280       189       0         0         0         0         0         
4      435       484       28901     52        189       0         0         0         0         0         
1      608       698       28901     189       189       0         0         0         0         0         
1      506       674       28901     189       189       0         0         0         0         0         
3      1010      1025      28901     290       291       0         0         0         0         0         
2      291       462       28902     87        189       0         0         0         0         0         
3      291       462       28902     87        189       0         0         0         0         0         
1      115       760       28902     9         291       0         0         0         0         0         
1      646       697       28902     280       189       0         0         0         0         0         
1      748       675       28902     290       189       0         0         0         0         0         
1      916       694       28902     291       189       0         0         0         0         0         
1      598       732       28902     189       131       0         0         0         0         0         
1      947       1025      28903     290       291       0         0         0         0         0         
2      598       958       28903     189       291       0         0         0         0         0         
1      970       1025      28903     290       291       0         0         0         0         0         
1      1053      1148      28903     84        291       0         0         0         0         0         
1      438       718       28904     100       189       0         0         0         0         0         
2      438       358       28904     100       168       0         0         0         0         0         
2      881       1074      28904     290       84        0         0         0         0         0         
1      463       463       28904     168       168       0         0         0         0         0         
1      713       473       28905     131       52        0         0         0         0         0         
1      875       1010      28905     291       290       0         0         0         0         0         
1      488       651       28905     199       189       0         0         0         0         0         
1      31        122       28905     9         54        0         0         0         0         0         
1      78        228       28905     9         266       0         0         0         0         0         
2      276       674       28905     87        189       0         0         0         0         0         
1      352       437       28905     119       100       0         0         0         0         0         
3      276       674       28905     87        189       0         0         0         0         0         
1      789       972       28906     290       290       0         0         0         0         0         
1      923       580       28906     290       189       0         0         0         0         0         
2      304       393       28906     299       52        0         0         0         0         0         
3      908       727       28906     290       290       0         0         0         0         0         
1      118       358       28906     286       168       0         0         0         0         0         
3      722       794       28907     290       290       0         0         0         0         0         
1      882       837       28907     290       290       0         0         0         0         0         
3      722       794       28907     290       290       0         0         0         0         0         
1      191       694       28907     266       189       0         0         0         0         0         
1      418       673       28907     168       189       0         0         0         0         0         
2      559       391       28907     189       52        0         0         0         0         0         
3      795       698       28907     290       189       0         0         0         0         0         
3      549       577       28907     52        189       0         0         0         0         0         
2      549       577       28907     52        189       0         0         0         0         0         
1      232       183       28907     266       178       0         0         0         0         0         
2      795       698       28907     290       189       0         0         0         0         0         
1      396       552       28908     119       189       0         0         0         0         0         
1      768       605       28908     290       189       0         0         0         0         0         
1      528       393       28908     52        52        0         0         0         0         0         
2      80        1032      28909     98        84        0         0         0         0         0         
1      693       828       28909     280       291       0         0         0         0         0         
1      939       626       28909     291       189       0         0         0         0         0         
1      546       720       28909     52        290       0         0         0         0         0         
1      465       558       28910     199       189       0         0         0         0         0         
1      441       11        28910     168       999       0         0         0         0         0         
1      504       310       28910     52        127       0         0         0         0         0         
2      507       457       28910     189       52        0         0         0         0         0         
1      458       695       28910     52        189       0         0         0         0         0         
3      662       603       28911     131       189       0         0         0         0         0         
3      579       665       28911     189       131       0         0         0         0         0         
2      691       666       28911     131       131       0         0         0         0         0         
2      812       835       28911     290       290       0         0         0         0         0         
3      608       722       28911     189       290       0         0         0         0         0         
3      608       722       28911     189       290       0         0         0         0         0         
2      579       665       28911     189       131       0         0         0         0         0         
3      1011      666       28911     84        131       0         0         0         0         0         
3      1011      666       28911     84        131       0         0         0         0         0         
1      626       574       28911     189       189       0         0         0         0         0         
1      722       394       28912     290       100       0         0         0         0         0         
2      630       535       28912     189       189       0         0         0         0         0         
1      646       626       28912     280       189       0         0         0         0         0         
2      739       579       28912     189       189       0         0         0         0         0         
1      618       668       28912     131       280       0         0         0         0         0         
2      579       624       28912     189       189       0         0         0         0         0         
1      457       669       28912     52        280       0         0         0         0         0         
1      903       991       28913     290       290       0         0         0         0         0         
1      633       580       28913     189       189       0         0         0         0         0         
1      838       698       28913     290       189       0         0         0         0         0         
2      829       627       28913     50        189       0         0         0         0         0         
1      662       747       28913     131       290       0         0         0         0         0         
1      904       743       28914     290       290       0         0         0         0         0         
1      456       289       28914     52        127       0         0         0         0         0         
1      505       511       28914     52        199       0         0         0         0         0         
1      466       97        28914     199       9         0         0         0         0         0         
1      510       652       28914     199       189       0         0         0         0         0         
1      1271      1208      28914     129       192       0         0         0         0         0         
1      769       971       28915     290       290       0         0         0         0         0         
1      811       439       28915     290       189       0         0         0         0         0         
1      1098      1094      28915     84        84        0         0         0         0         0         
1      387       387       28915     299       299       0         0         0         0         0         
1      721       834       28916     290       290       0         0         0         0         0         
2      479       98        28916     52        98        0         0         0         0         0         
3      801       946       28916     291       290       0         0         0         0         0         
1      646       711       28916     280       131       0         0         0         0         0         
1      969       599       28916     290       280       0         0         0         0         0         
2      852       351       28916     291       52        0         0         0         0         0         
3      852       351       28916     291       52        0         0         0         0         0         
2      817       719       28916     290       189       0         0         0         0         0         
2      582       662       28917     189       131       0         0         0         0         0         
3      582       662       28917     189       131       0         0         0         0         0         
1      608       556       28917     189       199       0         0         0         0         0         
1      326       97        28917     299       9         0         0         0         0         0         
1      735       603       28917     131       189       0         0         0         0         0         
1      619       371       28918     131       52        0         0         0         0         0         
1      859       947       28918     290       290       0         0         0         0         0         
1      556       474       28918     199       52        0         0         0         0         0         
1      527       138       28918     52        57        0         0         0         0         0         
3      724       795       28919     290       290       0         0         0         0         0         
2      556       421       28919     199       168       0         0         0         0         0         
2      330       235       28919     127       87        0         0         0         0         0         
1      946       698       28919     290       189       0         0         0         0         0         
1      948       828       28919     290       291       0         0         0         0         0         
